rectOffsets = 
    [|0,0,3,3|0,0,3,3|0,0,3,4|0,0,4,3|0,0,3,5|0,0,5,3|0,0,3,6|0,0,6,3|0,0,3,7|0,0,7,3|0,0,3,8|0,0,8,3|0,0,3,9|0,0,9,3|0,0,6,3|0,0,3,6|];

shape = array1d(1..16, [{1}, {2}, {3}, {4}, {5}, {6}, {7}, {8}, {9}, {10},
    {11}, {12}, {13}, {14}, {15}, {16}]);

validshapes = array1d(1..8, [{1,2}, {3,4}, {5,6}, {7,8}, {9,10}, {11,12}, {13,14},
    {15,16}]);

dx = array1d(1..8, [3, 3, 3, 3, 3, 3, 3, 6]);

dy = array1d(1..8, [3, 4, 5, 6, 7, 8, 9, 3]);

w = 12;

n = 8;

o = 16;

